homework/HW5/debug.mps
* Signature: 0xe10abdb866b8611b
NAME 
ROWS
 N  OBJ
 E  c0      
 G  c1      
 L  c2      
 E  c3      
 G  c4      
 L  c5      
 E  c6      
 G  c7      
 L  c8      
 E  c9      
 E  c10     
 E  c11     
 E  c12     
 G  c13     
 L  c14     
 E  c15     
 G  c16     
 L  c17     
 E  c18     
 G  c19     
 L  c20     
 E  c21     
 G  c22     
 L  c23     
 E  c24     
 G  c25     
 L  c26     
 E  c27     
 G  c28     
 L  c29     
 E  c30     
COLUMNS
    x[1,2]    c3        -1
    x[1,2]    c10       1
    x[1,2]    c13       1
    x[1,2]    c14       1
    x[1,2]    c15       1
    x[2,3]    c6        1
    x[2,3]    c10       -1
    x[2,3]    c16       1
    x[2,3]    c17       1
    x[2,3]    c18       1
    x[3,4]    c6        -1
    x[3,4]    c11       1
    x[3,4]    c19       1
    x[3,4]    c20       1
    x[3,4]    c21       1
    x[4,5]    c9        1
    x[4,5]    c11       -1
    x[4,5]    c22       1
    x[4,5]    c23       1
    x[4,5]    c24       1
    x[5,6]    c9        -1
    x[5,6]    c12       1
    x[5,6]    c25       1
    x[5,6]    c26       1
    x[5,6]    c27       1
    x[6,1]    c3        1
    x[6,1]    c12       -1
    x[6,1]    c28       1
    x[6,1]    c29       1
    x[6,1]    c30       1
    p[1]      OBJ       10
    p[1]      c1        1
    p[1]      c2        1
    p[1]      c3        1
    p[3]      OBJ       5
    p[3]      c4        1
    p[3]      c5        1
    p[3]      c6        1
    p[5]      OBJ       8
    p[5]      c7        1
    p[5]      c8        1
    p[5]      c9        1
    theta[1]  c0        1
    theta[1]  c15       -11.6
    theta[1]  c30       10.5
    theta[2]  c15       11.6
    theta[2]  c18       -5.9
    theta[3]  c18       5.9
    theta[3]  c21       -13.7
    theta[4]  c21       13.7
    theta[4]  c24       -9.8
    theta[5]  c24       9.8
    theta[5]  c27       -5.6
    theta[6]  c27       5.6
    theta[6]  c30       -10.5
RHS
    RHS1      c1        20
    RHS1      c2        270
    RHS1      c4        20
    RHS1      c5        250
    RHS1      c7        10
    RHS1      c8        300
    RHS1      c10       120
    RHS1      c11       95
    RHS1      c12       105
    RHS1      c13       -100
    RHS1      c14       100
    RHS1      c16       -120
    RHS1      c17       120
    RHS1      c19       -50
    RHS1      c20       50
    RHS1      c22       -90
    RHS1      c23       90
    RHS1      c25       -60
    RHS1      c26       60
    RHS1      c28       -50
    RHS1      c29       50
BOUNDS
 FR BND1      x[1,2]  
 FR BND1      x[2,3]  
 FR BND1      x[3,4]  
 FR BND1      x[4,5]  
 FR BND1      x[5,6]  
 FR BND1      x[6,1]  
 FR BND1      theta[1]
 FR BND1      theta[2]
 FR BND1      theta[3]
 FR BND1      theta[4]
 FR BND1      theta[5]
 FR BND1      theta[6]
ENDATA
